100 3 100
16 52 84 65 18 14 79 49 69 75 37 67 19 89 95 56 36 64 81 68 71 94 57 7 19 91 53 50 52 53 18 56 37 35 74 51 14 24 3 35 51 40 2 71 81 50 79 17 14 12 85 37 7 94 96 26 86 1 28 90 54 46 46 91 82 73 95 48 49 98 84 52 91 38 75 72 88 54 42 2 67 79 91 74 74 88 52 12 89 33 2 96 79 87 13 73 34 62 74 33 
